30 4 380
4 18 606
18 12 768
12 42 2092
42 33 4807
33 1 7621
1 27 4123
27 31 4460
31 25 299
25 11 545
11 45 436
45 52 722
52 2 598
2 14 433
14 16 907
16 15 556
15 36 679
36 46 402
46 39 214
39 22 887
22 10 117
10 9 803
9 34 835
34 54 401
54 53 624
53 23 388
23 21 176
21 29 516
29 17 1002
17 48 415
48 26 1009
26 49 560
49 19 934
19 44 1282
44 8 383
8 38 368
38 50 1180
50 20 763
20 7 846
7 37 517
37 5 467
5 35 323
35 24 296
24 32 1089
32 41 362
41 13 686
13 51 644
51 40 1042
40 43 1279
43 3 1096
3 6 385
6 28 404
28 55 487
55 47 1465
47 30 944
